
Log started (V12.10.0.0) Fri Apr 23 08:40:46 2021


Problem 'asset.lp' read.
Read time = 0.01 sec. (1.20 ticks)
New value for default parallel thread count: 1
New value for time limit in seconds: 150
Version identifier: 12.10.0.0 | 2019-11-26 | 843d4de
CPXPARAM_Threads                                 1
CPXPARAM_TimeLimit                               150
Found incumbent of value 0.000000 after 0.00 sec. (0.28 ticks)
Tried aggregator 3 times.
MIP Presolve eliminated 4919 rows and 308 columns.
MIP Presolve modified 6871 coefficients.
Aggregator did 3178 substitutions.
Reduced MIP has 3404 rows, 4225 columns, and 19514 nonzeros.
Reduced MIP has 3769 binaries, 372 generals, 0 SOSs, and 0 indicators.
Presolve time = 0.03 sec. (39.65 ticks)
Probing fixed 198 vars, tightened 16 bounds.
Probing time = 0.03 sec. (23.34 ticks)
Cover probing fixed 0 vars, tightened 18 bounds.
Tried aggregator 1 time.
Detecting symmetries...
MIP Presolve eliminated 281 rows and 245 columns.
MIP Presolve modified 430 coefficients.
Reduced MIP has 3123 rows, 3980 columns, and 17443 nonzeros.
Reduced MIP has 3540 binaries, 356 generals, 0 SOSs, and 0 indicators.
Presolve time = 0.02 sec. (15.91 ticks)
Probing time = 0.01 sec. (3.46 ticks)
Clique table members: 11364.
MIP emphasis: balance optimality and feasibility.
MIP search method: dynamic search.
Parallel mode: none, using 1 thread.
Root relaxation solution time = 0.11 sec. (163.49 ticks)

        Nodes                                         Cuts/
   Node  Left     Objective  IInf  Best Integer    Best Bound    ItCnt     Gap

*     0+    0                            0.0000     1090.0000              --- 
      0     0      960.3339   468        0.0000      960.3339     1485     --- 
      0     0      940.8310   468        0.0000     Cuts: 880     5480     --- 
      0     0      933.4283   468        0.0000     Cuts: 880     8096     --- 
      0     0      928.0836   468        0.0000     Cuts: 880    11118     --- 
      0     0      924.0870   468        0.0000     Cuts: 880    12857     --- 
      0     0      921.4442   468        0.0000     Cuts: 760    13966     --- 
Detecting symmetries...
      0     0      919.8388   468        0.0000     Cuts: 880    16412     --- 
      0     0      918.2222   468        0.0000     Cuts: 880    18127     --- 
      0     0      917.4636   468        0.0000     Cuts: 826    19041     --- 
      0     0      916.0668   468        0.0000     Cuts: 781    21850     --- 
      0     0      915.2532   468        0.0000     Cuts: 880    23462     --- 
      0     0      913.6950   468        0.0000     Cuts: 761    25357     --- 
      0     0      912.3563   468        0.0000     Cuts: 707    27243     --- 
      0     0      911.2546   468        0.0000     Cuts: 880    29252     --- 
      0     0      909.5392   468        0.0000     Cuts: 689    31041     --- 
      0     0      908.8613   468        0.0000     Cuts: 804    32392     --- 
      0     0      907.6561   468        0.0000     Cuts: 532    32973     --- 
      0     0      907.4114   468        0.0000     Cuts: 743    33667     --- 
      0     0      907.2739   468        0.0000     Cuts: 527    34437     --- 
      0     0      907.0638   468        0.0000     Cuts: 537    35222     --- 
      0     0      906.6686   468        0.0000     Cuts: 880    35917     --- 
      0     0      906.1695   468        0.0000     Cuts: 503    36878     --- 
      0     0      905.9841   468        0.0000     Cuts: 700    37621     --- 
      0     0      905.4757   468        0.0000     Cuts: 617    37985     --- 
      0     0      904.9746   468        0.0000     Cuts: 640    39256     --- 
      0     0      904.2148   468        0.0000     Cuts: 736    40139     --- 
      0     0      903.4537   468        0.0000     Cuts: 685    41433     --- 
      0     0      903.0513   468        0.0000     Cuts: 561    42646     --- 
      0     0      902.5709   468        0.0000     Cuts: 814    43365     --- 
      0     0      902.1478   468        0.0000     Cuts: 451    44335     --- 
      0     0      901.8030   468        0.0000     Cuts: 835    44936     --- 
      0     0      901.2981   468        0.0000     Cuts: 477    45579     --- 
      0     0      901.1062   468        0.0000     Cuts: 646    46197     --- 
*     0+    0                          355.0000      901.1062           153.83%
      0     0        cutoff            355.0000      901.1062    46197  153.83%
Detecting symmetries...
      0     2      901.1062   502      355.0000      901.1062    46197  153.83%
Elapsed time = 11.03 sec. (15015.84 ticks, tree = 0.01 MB, solutions = 1)
      4     6      901.0101   477      355.0000      901.1062    47339  153.83%
     10    12      900.8274   487      355.0000      901.1062    48981  153.83%
     14    16      900.0832   456      355.0000      901.1062    50576  153.83%
     16    18      899.4785   453      355.0000      901.1062    52210  153.83%
     18    20      898.9702   463      355.0000      901.1062    53864  153.83%
     20    22      898.9701   463      355.0000      901.1062    53980  153.83%
     23    25      896.0737   461      355.0000      901.1062    55627  153.83%
     32    34      897.2776   463      355.0000      901.1062    56945  153.83%
     37    39      866.6645   442      355.0000      901.1062    59513  153.83%
     50    52      866.7555   425      355.0000      901.1062    64501  153.83%
Elapsed time = 13.51 sec. (19012.48 ticks, tree = 0.64 MB, solutions = 1)
     60    62      887.3109   417      355.0000      901.1062    67561  153.83%
     83    82      864.3740   373      355.0000      901.1062    72767  153.83%
    102    99      850.1592   384      355.0000      901.1062    77259  153.83%
    115   112      836.6973   380      355.0000      901.1062    82180  153.83%
    133   130      771.9303   297      355.0000      901.1062    86131  153.83%
    184   180      700.5787   217      355.0000      901.1062    91473  153.83%
    252   224      889.8575   454      355.0000      900.9373    96298  153.79%
    260   232      872.6895   468      355.0000      900.9373   100968  153.79%
    275   247      859.4693   441      355.0000      900.9373   105989  153.79%
    284   256      757.0945   305      355.0000      900.9373   110988  153.79%
Elapsed time = 20.13 sec. (28730.48 ticks, tree = 5.72 MB, solutions = 1)
    303   275      830.9066   366      355.0000      900.9373   116525  153.79%
    320   290      805.2375   309      355.0000      900.9373   120146  153.79%
    382   346      647.0436   157      355.0000      900.9373   126441  153.79%
    469   421      899.5011   517      355.0000      900.8953   131351  153.77%
    503   455      888.8867   490      355.0000      900.8953   136000  153.77%
    538   490      870.4907   458      355.0000      900.8953   140604  153.77%
    569   521      859.3720   421      355.0000      900.8953   144145  153.77%
    602   554      898.0614   480      355.0000      900.8680   150281  153.77%
    635   587      882.8856   443      355.0000      900.8680   154918  153.77%
    652   604      877.6675   448      355.0000      900.8680   156619  153.77%
Elapsed time = 26.53 sec. (38735.29 ticks, tree = 10.97 MB, solutions = 1)
    714   666      866.2258   377      355.0000      900.8680   159957  153.77%
    801   751      834.6591   325      355.0000      900.8680   164893  153.77%
    806   756      873.2904   499      355.0000      900.8662   170084  153.77%
    818   768      866.2622   467      355.0000      900.8662   174626  153.77%
    837   785      772.6241   330      355.0000      900.8662   179598  153.77%
    868   814      701.6685   253      355.0000      900.8662   183488  153.77%

Performing restart 1

Repeating presolve.
Tried aggregator 1 time.
MIP Presolve modified 5171 coefficients.
Reduced MIP has 3123 rows, 3980 columns, and 14872 nonzeros.
Reduced MIP has 3540 binaries, 356 generals, 0 SOSs, and 0 indicators.
Presolve time = 0.01 sec. (12.37 ticks)
Tried aggregator 1 time.
Reduced MIP has 3123 rows, 3980 columns, and 14872 nonzeros.
Reduced MIP has 3540 binaries, 356 generals, 0 SOSs, and 0 indicators.
Presolve time = 0.01 sec. (10.32 ticks)
Represolve time = 0.11 sec. (73.03 ticks)
    944     0      854.3807   568      355.0000     Cuts: 689   200794  140.67%
    944     0      840.3295   568      355.0000     Cuts: 457   202938  136.71%
    944     0      830.8979   568      355.0000     Cuts: 602   205859  134.06%
    944     0      824.3492   568      355.0000     Cuts: 534   208560  132.21%
    944     0      820.1378   568      355.0000     Cuts: 426   210732  131.02%
    944     0      816.4458   568      355.0000     Cuts: 443   213327  129.98%
*   944+    0                          365.0000      816.4458           123.68%
*   944+    0                          370.0000      816.4458           120.66%
*   944+    0                          375.0000      816.4458           117.72%
*   944+    0                          380.0000      816.4458           114.85%
*   944+    0                          395.0000      816.4458           106.70%
*   944+    0                          400.0000      816.4458           104.11%
    944     0        cutoff            400.0000      816.4458   213327  104.11%
    944     0      812.2244   568      400.0000     Cuts: 350   214665  103.06%
    944     0      810.6805   568      400.0000     Cuts: 449   216336  102.67%
    944     0      809.7871   568      400.0000     Cuts: 321   217412  102.45%
    944     0      808.5763   568      400.0000     Cuts: 373   218929  102.14%
    944     0      807.8384   568      400.0000     Cuts: 404   219615  101.96%
    944     0      807.3775   568      400.0000     Cuts: 297   220326  101.84%
*   944+    0                          430.0000      807.3775            87.76%
*   944+    0                          435.0000      807.3775            85.60%
    944     0      806.7749   568      435.0000     Cuts: 330   221000   85.47%
    944     0      806.3515   568      435.0000     Cuts: 158   221720   85.37%
    944     0      806.2737   568      435.0000     Cuts: 213   222030   85.35%
*   944+    0                          440.0000      806.2737            83.24%
    944     0      805.2534   568      440.0000     Cuts: 181   223646   83.01%
    944     0      804.9804   568      440.0000     Cuts: 266   224241   82.95%
    944     0      804.7218   568      440.0000     Cuts: 297   224579   82.89%
*   944+    0                          445.0000      804.7218            80.84%
    944     0      804.6028   568      445.0000     Cuts: 251   224980   80.81%
    944     0      804.3146   568      445.0000     Cuts: 193   226392   80.74%
    944     0      804.1304   568      445.0000     Cuts: 290   227498   80.70%
*   944+    0                          450.0000      804.1304            78.70%
*   944+    0                          455.0000      804.1304            76.73%
    944     0      803.6238   568      455.0000     Cuts: 329   228856   76.62%
    944     0      803.4506   568      455.0000     Cuts: 251   229428   76.58%
    944     0      803.3623   568      455.0000     Cuts: 241   229812   76.56%
*   944+    0                          475.0000      803.3623            69.13%
*   944+    0                          480.0000      803.3623            67.37%
    944     0        cutoff            480.0000      803.3623   229812   67.37%
    944     0      803.2407   568      480.0000     Cuts: 228   230409   67.34%
    944     0      803.2205   568      480.0000     Cuts: 270   230689   67.34%
    944     0      803.1990   568      480.0000     Cuts: 259   230950   67.33%
    944     0      803.1752   568      480.0000     Cuts: 147   231143   67.33%
*   944+    0                          485.0000      803.1752            65.60%
*   944+    0                          490.0000      803.1752            63.91%
    944     2      803.1752   519      490.0000      803.1550   231143   63.91%
    947     5      798.6802   467      490.0000      802.7180   234813   63.82%
    950     8      802.1480   453      490.0000      802.7180   235653   63.82%
    953    10      787.7170   450      490.0000      802.7180   238454   63.82%
Elapsed time = 65.73 sec. (92065.46 ticks, tree = 0.16 MB, solutions = 17)
    956    13      786.4388   429      490.0000      802.7180   240122   63.82%
    959    16      773.0623   414      490.0000      802.7180   244138   63.82%
    965    22      776.5507   428      490.0000      802.7180   246529   63.82%
    972    29      781.2908   419      490.0000      802.7180   248659   63.82%
    975    32      765.9673   405      490.0000      802.7180   255018   63.82%
    979    36      766.3822   405      490.0000      802.7180   258823   63.82%
    985    42      759.5789   427      490.0000      802.7180   262197   63.82%
    989    46      749.6190   398      490.0000      802.7180   265487   63.82%
    993    50      755.2348   407      490.0000      802.7180   268987   63.82%
    997    54      758.2746   441      490.0000      802.7180   273821   63.82%
Elapsed time = 72.47 sec. (103088.50 ticks, tree = 0.73 MB, solutions = 17)
   1001    58      735.3677   388      490.0000      802.7180   277865   63.82%
   1005    62      759.1733   416      490.0000      802.7180   279353   63.82%
   1013    70      735.8364   373      490.0000      802.7180   282980   63.82%
   1016    73      750.5934   395      490.0000      802.7180   284101   63.82%
   1024    81      734.3880   364      490.0000      802.7180   287622   63.82%
   1029    86      753.5300   383      490.0000      802.7180   291063   63.82%
   1039    96      738.3826   394      490.0000      802.7180   293941   63.82%
   1050   104      730.2141   367      490.0000      802.7180   296147   63.82%
   1065   117    infeasible            490.0000      802.7180   298195   63.82%
   1083   134      714.6515   380      490.0000      802.7180   300486   63.82%
Elapsed time = 79.16 sec. (114042.75 ticks, tree = 2.04 MB, solutions = 17)
   1100   147      708.3134   340      490.0000      802.7180   302529   63.82%
   1111   150    infeasible            490.0000      802.7180   308580   63.82%
   1115   150      801.1687   450      490.0000      802.6494   309576   63.81%
   1124   158      783.2404   446      490.0000      802.6494   311952   63.81%
   1135   169      762.6836   431      490.0000      802.6494   315146   63.81%
   1144   178      760.9596   406      490.0000      802.6494   317448   63.81%
   1163   190      715.6958   338      490.0000      802.6494   321031   63.81%
   1182   209      695.7223   290      490.0000      802.6494   325404   63.81%
   1194   221      698.3420   283      490.0000      802.6494   328312   63.81%
   1224   245      658.6351   243      490.0000      802.6494   331528   63.81%
Elapsed time = 86.39 sec. (124960.88 ticks, tree = 5.50 MB, solutions = 17)
   1269   286      644.5545   226      490.0000      802.6494   335201   63.81%
   1335   346      620.9814   220      490.0000      802.6494   339494   63.81%
   1386   376      802.6055   447      490.0000      802.6001   342956   63.80%
   1395   385      798.5737   454      490.0000      802.5666   344764   63.79%
   1404   394      795.0103   446      490.0000      802.5666   346332   63.79%
   1424   414      787.7465   425      490.0000      802.5666   349761   63.79%
   1454   443      751.7114   359      490.0000      802.5666   353440   63.79%
   1495   484      691.3487   283      490.0000      802.5666   356381   63.79%
   1498   483      792.1124   500      490.0000      802.2615   359578   63.73%
   1514   499      769.4011   434      490.0000      802.2615   363274   63.73%
Elapsed time = 94.65 sec. (137012.28 ticks, tree = 13.11 MB, solutions = 17)
   1544   529      756.7886   382      490.0000      802.2615   367201   63.73%
   1588   573      742.8024   347      490.0000      802.2615   369910   63.73%
   1619   604      712.1582   321      490.0000      802.2615   373038   63.73%
   1654   632    infeasible            490.0000      802.2615   377182   63.73%
   1655   633      789.8154   507      490.0000      802.1529   379797   63.70%
   1662   640      764.8797   411      490.0000      802.1529   384009   63.70%
   1672   650      749.8901   365      490.0000      802.1529   386887   63.70%
   1683   661      731.4994   345      490.0000      802.1529   392103   63.70%
   1691   669      740.0572   389      490.0000      802.1529   396215   63.70%
   1700   678      739.2844   358      490.0000      802.1529   399683   63.70%
Elapsed time = 102.00 sec. (147853.10 ticks, tree = 18.71 MB, solutions = 17)
   1717   692      677.6787   289      490.0000      802.1529   403795   63.70%
   1723   694      642.1346   248      490.0000      802.1529   408575   63.70%
   1736   707      620.2697   198      490.0000      802.1529   412155   63.70%
   1744   709      770.4153   470      490.0000      802.1284   415610   63.70%
   1749   714      753.3819   399      490.0000      802.1284   418480   63.70%
   1757   722      745.2258   413      490.0000      802.1284   422015   63.70%
   1775   739      728.4328   379      490.0000      802.1284   425356   63.70%
   1785   748      705.1110   353      490.0000      802.1284   426888   63.70%
   1816   779      672.2894   290      490.0000      802.1284   430570   63.70%
   1908   863      759.3962   393      490.0000      801.4929   444538   63.57%
Elapsed time = 111.36 sec. (161551.52 ticks, tree = 23.15 MB, solutions = 17)
   1991   941      781.3520   490      490.0000      801.4911   457827   63.57%
   2064  1014      728.7364   359      490.0000      801.4911   470459   63.57%
   2169  1109      786.1499   439      490.0000      801.1297   482501   63.50%
   2274  1212      701.8550   321      490.0000      801.1297   498141   63.50%
   2315  1246      695.4370   351      490.0000      801.1293   512644   63.50%
   2409  1326      562.8747   153      490.0000      801.1293   528601   63.50%
   2484  1383      761.9196   416      490.0000      801.0733   538871   63.48%
   2643  1542      641.6698   225      490.0000      801.0733   552011   63.48%
   2735  1624      758.9530   422      490.0000      800.8184   563564   63.43%
Starting limited solution polishing.
   2834  1717      793.9014   484      490.0000      800.8177   576482   63.43%
Elapsed time = 138.00 sec. (200620.93 ticks, tree = 39.72 MB, solutions = 17)
   2847  1730      770.8620   430      490.0000      800.8177   581740   63.43%
   2897  1777      735.4540   352      490.0000      800.8177   589640   63.43%
   3008  1876      764.0086   402      490.0000      800.6117   603070   63.39%
   3086  1954      687.7013   276      490.0000      800.6117   611494   63.39%
Advanced basis not built.

GUB cover cuts applied:  70
Clique cuts applied:  266
Cover cuts applied:  15
Implied bound cuts applied:  62
Flow cuts applied:  21
Mixed integer rounding cuts applied:  162
Zero-half cuts applied:  123
Lift and project cuts applied:  17
Gomory fractional cuts applied:  11

Root node processing (before b&c):
  Real time             =   11.01 sec. (15000.54 ticks)
Sequential b&c:
  Real time             =  138.99 sec. (202040.19 ticks)
                          ------------
Total (root+branch&cut) =  150.00 sec. (217040.73 ticks)

Solution pool: 18 solutions saved.

MIP - Time limit exceeded, integer feasible:  Objective =  4.9000000000e+02
Current MIP best bound =  8.0061170309e+02 (gap = 310.612, 63.39%)
Solution time =  150.00 sec.  Iterations = 614193  Nodes = 3144 (2007)
Deterministic time = 217040.76 ticks  (1446.90 ticks/sec)


Incumbent solution
Variable Name           Solution Value
F                           490.000000
y171                          1.000000
y224                          1.000000
y142                          1.000000
y86                           1.000000
y47                           1.000000
y251                          1.000000
y121                          1.000000
y200                          1.000000
y63                           1.000000
y66                           1.000000
y255                          1.000000
y164                          1.000000
y90                           1.000000
y275                          1.000000
y111                          1.000000
y165                          1.000000
y110                          1.000000
y70                           1.000000
y56                           1.000000
y136                          1.000000
y221                          1.000000
y69                           1.000000
y37                           1.000000
y153                          1.000000
y194                          1.000000
y242                          1.000000
y3                            1.000000
y19                           1.000000
y98                           1.000000
y32                           1.000000
x17x171x1                     1.000000
x96x111x1                     1.000000
x84x121x1                     1.000000
x273x136x1                    1.000000
x177x63x1                     1.000000
x122x255x1                    1.000000
x122x3x1                      1.000000
x217x56x1                     2.000000
x96x111x2                     1.000000
x209x86x2                     1.000000
x84x251x2                     1.000000
x273x224x2                    1.000000
x177x69x2                     1.000000
x31x142x2                     1.000000
x31x86x2                      1.000000
x16x275x2                     2.000000
x209x171x3                    1.000000
x62x142x3                     1.000000
x62x251x3                     1.000000
x216x224x3                    1.000000
x216x121x3                    1.000000
x249x200x3                    1.000000
x249x63x3                     1.000000
x269x47x3                     2.000000
x171x165x1                    1.000000
x171x255x3                    1.000000
x224x221x2                    1.000000
x224x70x3                     1.000000
x142x69x2                     1.000000
x142x165x3                    1.000000
x86x66x2                      1.000000
x86x164x2                     1.000000
x47x66x3                      1.000000
x47x90x3                      1.000000
x251x200x2                    1.000000
x251x164x3                    1.000000
x121x90x1                     1.000000
x121x136x3                    1.000000
x200x110x2                    1.000000
x200x110x3                    1.000000
x63x153x1                     1.000000
x63x70x3                      1.000000
x66x0x2                       1.000000
x66x0x3                       1.000000
x255x221x1                    1.000000
x255x194x3                    1.000000
x164x0x2                      1.000000
x164x19x3                     1.000000
x90x32x1                      1.000000
x90x0x3                       1.000000
x275x37x2                     2.000000
x111x194x1                    1.000000
x111x153x2                    1.000000
x165x0x1                      1.000000
x165x3x3                      1.000000
x110x0x2                      1.000000
x110x0x3                      1.000000
x70x0x3                       2.000000
x56x242x1                     2.000000
x136x98x1                     1.000000
x136x98x3                     1.000000
x221x0x1                      1.000000
x221x0x2                      1.000000
x69x19x2                      1.000000
x69x32x2                      1.000000
x37x0x2                       2.000000
x153x0x1                      1.000000
x153x0x2                      1.000000
x194x0x1                      1.000000
x194x0x3                      1.000000
x242x0x1                      2.000000
x3x0x1                        1.000000
x3x0x3                        1.000000
x19x0x2                       1.000000
x19x0x3                       1.000000
x98x0x1                       1.000000
x98x0x3                       1.000000
x32x0x1                       1.000000
x32x0x2                       1.000000
s17                           4.520720
s193                          5.350000
s171                          6.379646
z17z171z1                     1.000000
s250                          5.560000
s149                          6.740664
s218                          7.019917
s121                          6.751206
s118                          7.343591
s233                          7.305558
z17z233z1                     1.000000
s210                          6.690000
z17z210z1                     1.000000
s18                           7.790000
z17z18z1                      1.000000
s63                           7.716193
s123                          7.950000
s212                          6.980000
s228                          7.060000
z17z228z1                     1.000000
s1                            7.120000
z17z1z1                       1.000000
s245                          8.120000
z17z245z1                     1.000000
s51                           8.290000
z17z51z1                      1.000000
s100                          7.300000
s236                          7.340000
s55                           8.420000
z17z55z1                      1.000000
s178                          7.420000
s120                          8.440000
z17z120z1                     1.000000
s189                          7.540000
z17z189z1                     1.000000
s248                          8.590000
z17z248z1                     1.000000
s255                          7.737417
s105                          7.640000
s90                           8.366003
s111                          7.870000
s168                          7.880000
s165                          8.247705
s125                          7.920000
z17z125z1                     1.000000
s25                           7.930000
s204                          9.100000
z17z204z1                     1.000000
s161                          9.130000
z17z161z1                     1.000000
s56                           8.257889
z17z56z1                      1.000000
s81                           8.187241
s136                          8.338024
s221                          9.170000
s225                          9.270000
s153                          9.310000
s194                          9.330000
s242                          9.330000
z17z242z1                     1.000000
s3                            9.380000
s98                           9.440000
s32                           9.500000
s96                           4.974340
s29                           6.991947
s251                          6.289842
s104                          6.320000
s253                          6.470000
s200                          7.430000
s36                           6.570000
s75                           7.620000
s159                          6.730000
s124                          6.830000
s240                          6.950000
s213                          6.960000
s241                          7.010000
s274                          8.010000
z96z228z1                     1.000000
s7                            7.080000
s222                          8.150000
s211                          7.230000
s261                          7.310000
z96z261z2                     1.000000
z96z55z1                      1.000000
s66                           8.275885
s108                          7.530000
z96z189z1                     1.000000
s199                          7.540000
s117                          7.560000
z96z248z1                     1.000000
s45                           7.640000
s164                          8.000527
s21                           7.660000
s196                          8.368826
z96z196z2                     1.000000
s275                          7.780000
z96z275z2                     1.000000
s14                           8.820000
z96z111z1                     1.000000
z96z111z2                     1.000000
s110                          8.910000
z96z125z1                     1.000000
s38                           8.010000
s170                          8.100000
z96z170z2                     1.000000
z96z204z1                     1.000000
z96z161z1                     1.000000
z96z56z1                      1.000000
s69                           8.186596
z96z69z2                      1.000000
s37                           9.190000
z96z37z2                      1.000000
z96z242z1                     1.000000
s19                           9.390000
s209                          4.924630
s264                          5.300000
z209z171z3                    1.000000
s267                          5.600000
s224                          6.714002
s99                           5.890000
s142                          6.659677
s43                           5.950000
s86                           6.629463
z209z86z2                     1.000000
s47                           6.999882
s49                           6.260000
s89                           6.340000
s184                          6.410000
s185                          7.174563
z209z159z2                    1.000000
z209z124z2                    1.000000
z209z213z2                    1.000000
z209z241z2                    1.000000
s205                          7.050000
z209z205z3                    1.000000
z209z222z2                    1.000000
s179                          7.230000
z209z179z3                    1.000000
z209z261z2                    1.000000
z209z196z2                    1.000000
z209z275z2                    1.000000
s202                          8.850000
z209z202z3                    1.000000
s70                           9.080000
z209z70z3                     1.000000
z209z170z2                    1.000000
s35                           8.221465
z209z35z3                     1.000000
z209z69z2                     1.000000
z209z37z2                     1.000000
s84                           4.871920
z84z251z2                     1.000000
z84z121z1                     1.000000
z84z75z2                      1.000000
z84z210z1                     1.000000
z84z159z2                     1.000000
z84z18z1                      1.000000
z84z124z2                     1.000000
z84z213z2                     1.000000
z84z241z2                     1.000000
z84z228z1                     1.000000
z84z1z1                       1.000000
z84z245z1                     1.000000
z84z222z2                     1.000000
z84z51z1                      1.000000
z84z261z2                     1.000000
z84z55z1                      1.000000
z84z120z1                     1.000000
z84z189z1                     1.000000
z84z248z1                     1.000000
z84z196z2                     1.000000
z84z275z2                     1.000000
z84z125z1                     1.000000
z84z170z2                     1.000000
z84z204z1                     1.000000
z84z161z1                     1.000000
z84z56z1                      1.000000
z84z69z2                      1.000000
z84z37z2                      1.000000
z84z242z1                     1.000000
s62                           5.044890
z62z142z3                     1.000000
z62z251z3                     1.000000
z62z205z3                     1.000000
z62z179z3                     1.000000
z62z202z3                     1.000000
z62z70z3                      1.000000
z62z35z3                      1.000000
s273                          5.308640
z273z224z2                    1.000000
z273z228z1                    1.000000
z273z261z2                    1.000000
z273z55z1                     1.000000
z273z120z1                    1.000000
z273z189z1                    1.000000
z273z248z1                    1.000000
z273z196z2                    1.000000
z273z275z2                    1.000000
z273z125z1                    1.000000
z273z170z2                    1.000000
z273z204z1                    1.000000
z273z161z1                    1.000000
z273z56z1                     1.000000
z273z136z1                    1.000000
z273z69z2                     1.000000
z273z37z2                     1.000000
z273z242z1                    1.000000
s177                          5.245700
z177z63z1                     1.000000
z177z228z1                    1.000000
z177z261z2                    1.000000
z177z55z1                     1.000000
z177z189z1                    1.000000
z177z248z1                    1.000000
z177z196z2                    1.000000
z177z275z2                    1.000000
z177z125z1                    1.000000
z177z170z2                    1.000000
z177z204z1                    1.000000
z177z161z1                    1.000000
z177z56z1                     1.000000
z177z69z2                     1.000000
z177z37z2                     1.000000
z177z242z1                    1.000000
s31                           5.036440
z31z142z2                     1.000000
z31z86z2                      1.000000
z31z159z2                     1.000000
z31z124z2                     1.000000
z31z213z2                     1.000000
z31z241z2                     1.000000
z31z222z2                     1.000000
z31z261z2                     1.000000
z31z196z2                     1.000000
z31z275z2                     1.000000
z31z170z2                     1.000000
z31z69z2                      1.000000
z31z37z2                      1.000000
s216                          5.171140
z216z224z3                    1.000000
z216z47z3                     1.000000
z216z121z3                    1.000000
z216z205z3                    1.000000
z216z179z3                    1.000000
z216z202z3                    1.000000
z216z70z3                     1.000000
z216z35z3                     1.000000
s249                          5.329460
z249z200z3                    1.000000
z249z63z3                     1.000000
z249z202z3                    1.000000
z249z70z3                     1.000000
z249z35z3                     1.000000
s269                          5.405590
z269z47z3                     1.000000
z269z179z3                    1.000000
z269z202z3                    1.000000
z269z70z3                     1.000000
z269z35z3                     1.000000
s122                          5.179370
z122z18z1                     1.000000
z122z228z1                    1.000000
z122z1z1                      1.000000
z122z245z1                    1.000000
z122z51z1                     1.000000
z122z55z1                     1.000000
z122z120z1                    1.000000
z122z189z1                    1.000000
z122z248z1                    1.000000
z122z255z1                    1.000000
z122z125z1                    1.000000
z122z204z1                    1.000000
z122z161z1                    1.000000
z122z56z1                     1.000000
z122z242z1                    1.000000
z122z3z1                      1.000000
s16                           5.793120
z16z196z2                     1.000000
z16z275z2                     1.000000
z16z170z2                     1.000000
z16z69z2                      1.000000
z16z37z2                      1.000000
s217                          5.802690
z217z125z1                    1.000000
z217z204z1                    1.000000
z217z161z1                    1.000000
z217z56z1                     1.000000
z217z242z1                    1.000000
z193z125z1                    1.000000
z193z161z1                    1.000000
z193z56z1                     1.000000
z193z69z2                     1.000000
z193z37z2                     1.000000
z193z242z1                    1.000000
z171z255z3                    1.000000
z171z165z1                    1.000000
z171z242z1                    1.000000
z250z56z1                     1.000000
z250z37z2                     1.000000
z250z242z1                    1.000000
z267z37z2                     1.000000
z224z70z3                     1.000000
z224z221z2                    1.000000
z224z37z2                     1.000000
z99z37z2                      1.000000
z142z165z3                    1.000000
z142z69z2                     1.000000
z142z37z2                     1.000000
z86z66z2                      1.000000
z86z164z2                     1.000000
z86z37z2                      1.000000
z29z37z2                      1.000000
z47z66z3                      1.000000
z47z90z3                      1.000000
z251z200z2                    1.000000
z251z164z3                    1.000000
z251z37z2                     1.000000
z121z90z1                     1.000000
z121z136z3                    1.000000
z104z37z2                     1.000000
z253z37z2                     1.000000
z200z110z2                    1.000000
z200z110z3                    1.000000
z75z37z2                      1.000000
z159z37z2                     1.000000
z63z70z3                      1.000000
z63z153z1                     1.000000
z241z196z2                    1.000000
z255z221z1                    1.000000
z255z194z3                    1.000000
z164z19z3                     1.000000
z90z32z1                      1.000000
z275z37z2                     1.000000
z111z153z2                    1.000000
z111z194z1                    1.000000
z165z3z3                      1.000000
z56z242z1                     1.000000
z136z98z1                     1.000000
z136z98z3                     1.000000
z69z19z2                      1.000000
z69z32z2                      1.000000
All other variables in the range 1-7712 are 0.
